attachment/milp/1-knapsack/knapsack-basic.dat
data;

set Items := A B C D E F G H I J;

param Weight :=
	A	16.1
	B	19.2
	C	15.0
	D	14.7
	E	11.3
	F	20.1
	G	17.5
	H	14.5
	I	14.8
	J	18.1
	;
param Gain :=
	A	4.4
	B	4.9
	C	4.3
	D	4.0
	E	3.7
	F	5.1
	G	4.6
	H	4.2
	I	4.3
	J	4.8
	;

param Capacity := 60;

end;
