attachment/milp/1-knapsack/knapsack-basic.log
GLPSOL: GLPK LP/MIP Solver, v4.65
Parameter(s) specified in the command line:
 -m knapsack-basic.mod -d knapsack-basic.dat --log knapsack-basic.log
Reading model section from knapsack-basic.mod...
26 lines were read
Reading data section from knapsack-basic.dat...
32 lines were read
Generating Total_Weight...
Generating Total_Gain...
Model has been successfully generated
GLPK Integer Optimizer, v4.65
2 rows, 10 columns, 20 non-zeros
10 integer variables, all of which are binary
Preprocessing...
1 row, 10 columns, 10 non-zeros
10 integer variables, all of which are binary
Scaling...
 A: min|aij| =  1.130e+01  max|aij| =  2.010e+01  ratio =  1.779e+00
GM: min|aij| =  1.000e+00  max|aij| =  1.000e+00  ratio =  1.000e+00
EQ: min|aij| =  1.000e+00  max|aij| =  1.000e+00  ratio =  1.000e+00
2N: min|aij| =  7.063e-01  max|aij| =  1.256e+00  ratio =  1.779e+00
Constructing initial basis...
Size of triangular part is 1
Solving LP relaxation...
GLPK Simplex Optimizer, v4.65
1 row, 10 columns, 10 non-zeros
*     0: obj =  -0.000000000e+00 inf =   0.000e+00 (10)
*    12: obj =   1.770248447e+01 inf =   0.000e+00 (0)
OPTIMAL LP SOLUTION FOUND
Integer optimization begins...
Long-step dual simplex will be used
+    12: mip =     not found yet <=              +inf        (1; 0)
Solution found by heuristic: 16.5
+    22: >>>>>   1.680000000e+01 <=   1.754600000e+01   4.4% (9; 1)
+    31: >>>>>   1.700000000e+01 <=   1.744640884e+01   2.6% (14; 4)
Solution found by heuristic: 17.1
+    40: mip =   1.710000000e+01 <=     tree is empty   0.0% (0; 41)
INTEGER OPTIMAL SOLUTION FOUND
Time used:   0.0 secs
Memory used: 0.1 Mb (149865 bytes)
Optimal Gain: 17.1
Total Weight: 59.2
A:
B:
C: SELECTED
D:
E: SELECTED
F:
G:
H:
I: SELECTED
J: SELECTED
Model has been successfully processed
